(set-logic BV) (define-fun origCir ((n72 Bool) (n79 Bool) (n94 Bool) (n87 Bool) (n69 Bool)) Bool (and (and (and n94 n87) (and n79 n72)) n69)) (synth-fun skel ((n72 Bool) (n79 Bool) (n94 Bool) (n87 Bool) (n69 Bool)) Bool) (declare-var n72 Bool) (declare-var n79 Bool) (declare-var n94 Bool) (declare-var n87 Bool) (declare-var n69 Bool) (constraint (= (origCir n72 n79 n94 n87 n69) (skel n72 n79 n94 n87 n69))) (check-synth)
